CUSTOMERS : 10
VEHICLES : 3
0 333 90 312 354 245 339 415 167 374 432 
436 0 323 8 160 138 264 230 346 364 281 
332 112 0 144 155 430 111 320 177 315 384 
273 71 369 0 236 434 67 115 249 49 405 
408 477 150 72 0 198 297 128 437 126 412 
390 70 265 149 491 0 431 135 139 347 295 
223 499 64 87 80 121 0 35 90 179 302 
39 57 378 367 13 498 88 0 144 401 442 
404 347 234 192 216 249 164 332 0 121 198 
241 35 287 71 314 42 66 252 144 0 114 
253 427 90 409 302 307 58 139 211 73 0 
